(declare-fun v6 () (_ BitVec 9))
(declare-fun v8 () (_ BitVec 12))
(declare-fun v11 () (_ BitVec 3))
(assert
(let (($e4 (_ bv605 10)))
(let (($e12 (_ bv229 8)))
(let (($e13 (_ bv0 7)))
(let (($e134 (concat $e13 v11)))
(let (($e135 (bvand $e134 $e4)))
(let (($e136 (bvand (bvnot $e134) (bvnot $e4))))
(let (($e137 (bvand (bvnot $e136) (bvnot $e135))))
(let (($e141 (bvand $e4   $e137)))
(let (($e1246 (concat v11           v6 )))
(let (($e1247      (=        v8  $e1246)         ))
              (ite        $e1247  $e141 $e137)
                                                                                                                                                                                                                                                                                                                                                                                                                                                                                                                                                                                                                                                                                                                                                                                                                                                                                                                                                                                                                                                                                                                                                                                                                                                                                                                                                                                                                                                                                                                                                                                                                                                                                                                                                                                                                                                                                                                                                                                                                                                                                                                                                                                                                                                                                                                                                                                                                                                                                                                                                                                                                                                                                                                                                                                                                                                                                                                                                                                                                                                                                                                                                                                                                                                                                                                                                                                                                                                                                                                                                                                                                                                                                                                                                                                                                                                                                                                                                                                                                                                                                                                                                                                                                                                                                                                                                                                                                                                                                                                                                                                                                                                                                                                                                                                                                                                                                                                                                                                                                                                                                                                                                                                                                                                                                                                                                                                                                                                         ))                                                                                                                                                                                                                                                                                                                                                                                                                                                                                                                                                                                                                                                                                                                                                                                                                                                                                                                                                                                                                                                                                                                                                )   ))))                                                                                             ))       )   )
